# mesoscopic heat conduction
# heat flow from hot right region to cold left region
# compare the temperature profile at the end opf the simulation,
# contained in file dump.last, to analytic solution.
#
#
dimension       2
units		si
atom_style	meso/multiphase
boundary        p p p 

# Adding a new property - need to be added before simulation box
fix   	        prop all property/atom d_cA d_dcA d_DA d_cAeq d_RA d_dmA d_mAthres ghost yes

include		vars.lmp

read_restart 	restart.mpiio

# Create region with constant concentration
region	 	rconstconc block 0.0 ${xconst} EDGE EDGE EDGE EDGE units box
group		constconc region rconstconc

# Setting the properties for the region
set		atom * meso/rho ${sph_rho}
set	        atom * mass ${sph_mass}

set		atom * d_cA 0.0
set		atom * d_dcA 0.0
set		atom * d_dmA 0.0
set		atom * d_DA ${sph_DA} # diffusion coefficient
set		atom * d_cAeq 0.0 # equilibrium concentration
set		atom * d_RA ${sph_RA} # Interacting between solid and liquid
set		atom * d_mAthres ${mass_thres} # threshold mass to convert to solid

# Pair style
pair_style         hybrid/overlay sph/rhosum/multiphase 1 sph/taitwater/morris
pair_coeff         * * sph/rhosum/multiphase   ${h}

pair_style         hybrid/overlay sph/concAprecipitation/multiphase sph/rhosum/multiphase 1 sph/taitwater/multiphase
pair_coeff         * * sph/concAprecipitation/multiphase ${h} ${d}
pair_coeff         * * sph/taitwater/multiphase ${sph_rho} ${sph_c} ${sph_eta} ${sph_gamma} ${h} ${sph_rho_background}
pair_coeff         * * sph/rhosum/multiphase   ${h}

# Update the concentration
fix 		concentration_fix liquid meso/concentrationA
fix 		concentration_fix1 constconc  meso/concentrationA

# Flowing properties
# inter-processor communication
comm_modify vel yes
compute         rho_peratom all meso/rho/atom
# Fix solid particles
fix             nomovesolid solid setforce 0 0 0
# Set force to atom
variable	bodyfx    atom mass*${gx}
fix      	bodyfx_id liquid addforce v_bodyfx 0.0 0.0 

variable           time equal step*dt
thermo_style       custom step v_time
thermo             ${Nfreq}

# Integration fix
fix             integrate_fix_full all meso

# Keep the concentration constant at inlet
set    	        group constconc d_cA 1.0
# fix    	        constconc_fix constconc meso/constantconcentrationA 1.0

# Time step after eequilibrium
timestep        ${dt1}
neighbor	0 bin
neigh_modify 	delay 0 every 1

dump		dump_fix all custom ${Nfreq} ${dname}/dump.*.dat id type x y z d_cA vx vy vz c_rho_peratom
dump_modify     dump_fix first yes
run             ${nrun1}