# mesoscopic heat conduction
# heat flow from hot right region to cold left region
# compare the temperature profile at the end opf the simulation,
# contained in file dump.last, to analytic solution.
#
#
dimension       2
units		si
atom_style	meso/multiphase
boundary        f f p 

# Adding a new property - need to be added before simulation box
fix   	        prop all property/atom d_cA d_dcA d_DA d_cAeq d_RA d_dmA d_mAthres ghost yes

variable        dt equal 0.01
variable 	T equal 20.00
variable 	nrun equal ${T}/${dt}

variable        dx equal 0.02
variable        h equal 3*${dx}
variable	d equal 0.5*${h}
variable 	rho_r equal 1.0
variable 	rho_l equal 1.0
variable        mass_l equal ${rho_l}*${dx}^2
variable        mass_r equal ${rho_r}*${dx}^2
variable	mass_thres equal 2.0*${mass_l}

lattice		sq ${dx} origin 0.5 0.5 0
region		box block 0 1.0 0 1.0 0 ${dx} units box
create_box	2 box
# create_atoms 	1 box
create_atoms 	1 random 10000 12345 NULL

region          left  block EDGE 0.9 EDGE EDGE EDGE EDGE units box
region          right block 0.9 EDGE EDGE EDGE EDGE EDGE units box

# Setting the properties for the region
set		region left type 1 # liquid
set		region right type 2 # solid

set	        region left meso/rho ${rho_l}
set		region right meso/rho ${rho_r}
set	        region left mass ${mass_l}
set		region right mass ${mass_r}

# set             region left d_cA 2.0
# set             region right d_cA 1.0
set		atom * d_cA 1.0
set		atom * d_cAeq 0.0 # equilibrium concentration
set		atom * d_dcA 0.0
set		atom * d_dmA 0.0
set		atom * d_DA 1.0e-3 # diffusion coefficient
set		atom * d_RA 8.0e-3 # Interacting between solid and liquid
set		atom * d_mAthres ${mass_thres} # threshold mass to convert to solid

pair_style      sph/concAprecipitation/multiphase
#               i j cutoff
# There seems to be problem with large value of either constants
# TODO: Figure it out
pair_coeff      * * 	      ${h} ${d}

timestep        ${dt}
neighbor	0 bin
fix             integrate_fix all meso/stationary
fix 		precipitation_fix all meso/precipitationA

dump		dump_fix all custom 10 dump.heat id type x y z d_cA mass
dump_modify     dump_fix first yes
run             ${nrun}
undump          dump_fix